c 
c G(n,p) graph
c graph gen seed     : 7148
c number of vertices : 60
c max number of edges: 1770
c edge probability   : 0.600000
c data structure     : dense
c
c           Graph Stats
c number of vertices  : 60
c nonisolated vertices: 60
c number of edges     : 1077
c edge density        : 0.608475
c max degree          : 45
c avg degree          : 35.90
c min degree          : 30
p col 60 1077
e 1 2
e 1 3
e 1 5
e 1 6
e 1 7
e 1 10
e 1 11
e 1 14
e 1 15
e 1 16
e 1 17
e 1 18
e 1 19
e 1 20
e 1 21
e 1 24
e 1 28
e 1 29
e 1 30
e 1 31
e 1 32
e 1 33
e 1 35
e 1 37
e 1 39
e 1 40
e 1 43
e 1 44
e 1 45
e 1 46
e 1 47
e 1 48
e 1 49
e 1 52
e 1 53
e 1 58
e 2 3
e 2 4
e 2 5
e 2 7
e 2 8
e 2 12
e 2 17
e 2 21
e 2 22
e 2 23
e 2 25
e 2 26
e 2 27
e 2 30
e 2 31
e 2 32
e 2 34
e 2 35
e 2 36
e 2 38
e 2 39
e 2 40
e 2 43
e 2 44
e 2 45
e 2 47
e 2 48
e 2 50
e 2 52
e 2 56
e 2 57
e 2 59
e 3 5
e 3 6
e 3 7
e 3 8
e 3 12
e 3 15
e 3 17
e 3 18
e 3 19
e 3 20
e 3 22
e 3 23
e 3 24
e 3 25
e 3 29
e 3 30
e 3 31
e 3 32
e 3 34
e 3 35
e 3 36
e 3 39
e 3 40
e 3 42
e 3 44
e 3 45
e 3 48
e 3 50
e 3 51
e 3 52
e 3 53
e 3 55
e 3 56
e 3 58
e 4 6
e 4 7
e 4 11
e 4 13
e 4 14
e 4 17
e 4 19
e 4 22
e 4 23
e 4 25
e 4 28
e 4 29
e 4 30
e 4 32
e 4 34
e 4 35
e 4 36
e 4 38
e 4 41
e 4 43
e 4 46
e 4 48
e 4 50
e 4 51
e 4 54
e 4 55
e 4 57
e 4 59
e 4 60
e 5 7
e 5 10
e 5 13
e 5 16
e 5 17
e 5 18
e 5 20
e 5 21
e 5 23
e 5 28
e 5 29
e 5 30
e 5 31
e 5 32
e 5 34
e 5 35
e 5 36
e 5 38
e 5 39
e 5 41
e 5 42
e 5 46
e 5 47
e 5 48
e 5 49
e 5 50
e 5 51
e 5 53
e 5 54
e 5 55
e 5 56
e 5 57
e 6 7
e 6 8
e 6 10
e 6 12
e 6 13
e 6 14
e 6 15
e 6 17
e 6 18
e 6 20
e 6 21
e 6 22
e 6 23
e 6 25
e 6 26
e 6 28
e 6 29
e 6 31
e 6 32
e 6 34
e 6 35
e 6 36
e 6 37
e 6 38
e 6 40
e 6 41
e 6 45
e 6 46
e 6 47
e 6 49
e 6 50
e 6 51
e 6 52
e 6 53
e 6 55
e 6 56
e 6 57
e 6 58
e 7 8
e 7 10
e 7 11
e 7 13
e 7 14
e 7 15
e 7 16
e 7 17
e 7 20
e 7 22
e 7 24
e 7 26
e 7 28
e 7 29
e 7 30
e 7 31
e 7 32
e 7 33
e 7 35
e 7 37
e 7 38
e 7 39
e 7 40
e 7 42
e 7 43
e 7 44
e 7 46
e 7 48
e 7 49
e 7 50
e 7 52
e 7 55
e 8 9
e 8 11
e 8 13
e 8 14
e 8 16
e 8 18
e 8 19
e 8 21
e 8 23
e 8 24
e 8 25
e 8 29
e 8 31
e 8 32
e 8 34
e 8 36
e 8 37
e 8 38
e 8 39
e 8 41
e 8 43
e 8 44
e 8 45
e 8 47
e 8 48
e 8 49
e 8 50
e 8 52
e 8 54
e 8 56
e 8 57
e 8 58
e 8 60
e 9 10
e 9 12
e 9 16
e 9 19
e 9 20
e 9 21
e 9 22
e 9 23
e 9 24
e 9 25
e 9 26
e 9 27
e 9 31
e 9 33
e 9 34
e 9 36
e 9 39
e 9 41
e 9 42
e 9 43
e 9 44
e 9 46
e 9 47
e 9 48
e 9 49
e 9 53
e 9 54
e 9 55
e 9 56
e 9 58
e 9 60
e 10 11
e 10 12
e 10 13
e 10 14
e 10 18
e 10 19
e 10 21
e 10 22
e 10 23
e 10 24
e 10 25
e 10 26
e 10 28
e 10 29
e 10 31
e 10 32
e 10 33
e 10 34
e 10 35
e 10 36
e 10 37
e 10 41
e 10 42
e 10 43
e 10 45
e 10 48
e 10 49
e 10 50
e 10 53
e 10 54
e 10 55
e 10 56
e 10 59
e 10 60
e 11 12
e 11 13
e 11 14
e 11 18
e 11 19
e 11 22
e 11 23
e 11 24
e 11 25
e 11 26
e 11 27
e 11 29
e 11 30
e 11 32
e 11 37
e 11 40
e 11 42
e 11 43
e 11 46
e 11 49
e 11 51
e 11 54
e 11 55
e 11 57
e 11 59
e 11 60
e 12 16
e 12 18
e 12 19
e 12 21
e 12 23
e 12 25
e 12 26
e 12 28
e 12 29
e 12 30
e 12 31
e 12 32
e 12 34
e 12 35
e 12 36
e 12 37
e 12 39
e 12 40
e 12 41
e 12 42
e 12 43
e 12 44
e 12 47
e 12 48
e 12 49
e 12 51
e 12 52
e 12 54
e 12 56
e 12 58
e 12 60
e 13 14
e 13 15
e 13 17
e 13 19
e 13 20
e 13 21
e 13 23
e 13 24
e 13 25
e 13 26
e 13 27
e 13 28
e 13 30
e 13 31
e 13 32
e 13 34
e 13 36
e 13 37
e 13 38
e 13 39
e 13 41
e 13 42
e 13 44
e 13 45
e 13 47
e 13 49
e 13 50
e 13 51
e 13 52
e 13 53
e 13 54
e 13 55
e 13 56
e 13 57
e 13 58
e 13 59
e 13 60
e 14 15
e 14 16
e 14 19
e 14 20
e 14 24
e 14 28
e 14 29
e 14 30
e 14 31
e 14 32
e 14 33
e 14 36
e 14 37
e 14 38
e 14 40
e 14 41
e 14 42
e 14 43
e 14 45
e 14 46
e 14 47
e 14 48
e 14 50
e 14 53
e 14 55
e 14 57
e 14 58
e 14 59
e 15 16
e 15 18
e 15 20
e 15 22
e 15 25
e 15 27
e 15 31
e 15 33
e 15 34
e 15 36
e 15 38
e 15 39
e 15 41
e 15 42
e 15 43
e 15 44
e 15 45
e 15 47
e 15 48
e 15 49
e 15 50
e 15 53
e 15 54
e 15 56
e 15 57
e 15 58
e 15 59
e 16 21
e 16 22
e 16 23
e 16 26
e 16 28
e 16 29
e 16 30
e 16 31
e 16 33
e 16 34
e 16 38
e 16 39
e 16 40
e 16 42
e 16 43
e 16 46
e 16 47
e 16 48
e 16 50
e 16 52
e 16 54
e 16 55
e 16 59
e 17 19
e 17 21
e 17 24
e 17 25
e 17 26
e 17 27
e 17 28
e 17 30
e 17 33
e 17 35
e 17 36
e 17 37
e 17 38
e 17 40
e 17 41
e 17 42
e 17 44
e 17 46
e 17 47
e 17 49
e 17 51
e 17 52
e 17 53
e 17 54
e 17 55
e 17 56
e 17 57
e 17 58
e 18 20
e 18 24
e 18 25
e 18 26
e 18 28
e 18 29
e 18 30
e 18 32
e 18 33
e 18 36
e 18 37
e 18 40
e 18 42
e 18 45
e 18 46
e 18 47
e 18 48
e 18 49
e 18 50
e 18 51
e 18 52
e 18 53
e 18 56
e 18 58
e 18 60
e 19 20
e 19 21
e 19 24
e 19 28
e 19 29
e 19 31
e 19 32
e 19 34
e 19 35
e 19 38
e 19 39
e 19 43
e 19 44
e 19 45
e 19 47
e 19 48
e 19 49
e 19 50
e 19 51
e 19 52
e 19 53
e 19 55
e 19 56
e 19 59
e 19 60
e 20 22
e 20 23
e 20 24
e 20 25
e 20 27
e 20 28
e 20 30
e 20 33
e 20 36
e 20 37
e 20 40
e 20 43
e 20 44
e 20 46
e 20 47
e 20 48
e 20 50
e 20 51
e 20 53
e 20 55
e 20 56
e 20 59
e 20 60
e 21 22
e 21 23
e 21 24
e 21 27
e 21 28
e 21 29
e 21 30
e 21 31
e 21 32
e 21 35
e 21 37
e 21 38
e 21 40
e 21 41
e 21 42
e 21 45
e 21 48
e 21 51
e 21 53
e 21 54
e 21 55
e 21 56
e 21 58
e 21 60
e 22 23
e 22 28
e 22 32
e 22 33
e 22 36
e 22 37
e 22 38
e 22 41
e 22 42
e 22 44
e 22 46
e 22 47
e 22 48
e 22 50
e 22 51
e 22 53
e 22 54
e 22 55
e 22 56
e 22 57
e 22 58
e 22 59
e 22 60
e 23 25
e 23 26
e 23 29
e 23 30
e 23 33
e 23 37
e 23 38
e 23 40
e 23 42
e 23 43
e 23 44
e 23 45
e 23 46
e 23 47
e 23 48
e 23 49
e 23 50
e 23 55
e 23 56
e 23 57
e 23 59
e 24 26
e 24 28
e 24 29
e 24 31
e 24 33
e 24 36
e 24 38
e 24 40
e 24 41
e 24 42
e 24 45
e 24 46
e 24 50
e 24 51
e 24 52
e 24 53
e 24 55
e 24 56
e 24 57
e 24 59
e 24 60
e 25 27
e 25 29
e 25 30
e 25 39
e 25 40
e 25 41
e 25 42
e 25 45
e 25 47
e 25 48
e 25 49
e 25 51
e 25 55
e 25 56
e 25 58
e 25 59
e 25 60
e 26 28
e 26 29
e 26 30
e 26 32
e 26 33
e 26 34
e 26 35
e 26 36
e 26 39
e 26 41
e 26 42
e 26 43
e 26 44
e 26 45
e 26 48
e 26 51
e 26 54
e 26 58
e 26 60
e 27 29
e 27 30
e 27 31
e 27 32
e 27 33
e 27 34
e 27 36
e 27 37
e 27 38
e 27 39
e 27 40
e 27 41
e 27 43
e 27 44
e 27 45
e 27 47
e 27 49
e 27 50
e 27 51
e 27 52
e 27 55
e 27 56
e 27 57
e 27 60
e 28 29
e 28 30
e 28 32
e 28 33
e 28 34
e 28 39
e 28 41
e 28 42
e 28 43
e 28 44
e 28 45
e 28 46
e 28 47
e 28 48
e 28 49
e 28 52
e 28 54
e 28 55
e 28 58
e 28 60
e 29 30
e 29 31
e 29 33
e 29 34
e 29 35
e 29 36
e 29 39
e 29 40
e 29 44
e 29 45
e 29 46
e 29 48
e 29 49
e 29 51
e 29 53
e 29 54
e 29 57
e 29 58
e 29 59
e 30 31
e 30 32
e 30 33
e 30 34
e 30 36
e 30 37
e 30 38
e 30 39
e 30 40
e 30 42
e 30 43
e 30 44
e 30 45
e 30 46
e 30 49
e 30 50
e 30 51
e 30 53
e 30 54
e 30 55
e 30 56
e 30 57
e 30 58
e 30 59
e 31 33
e 31 35
e 31 36
e 31 38
e 31 39
e 31 40
e 31 41
e 31 42
e 31 46
e 31 48
e 31 50
e 31 53
e 31 56
e 32 33
e 32 34
e 32 35
e 32 36
e 32 37
e 32 40
e 32 41
e 32 43
e 32 44
e 32 45
e 32 49
e 32 51
e 32 52
e 32 55
e 32 56
e 32 57
e 32 60
e 33 34
e 33 35
e 33 38
e 33 39
e 33 40
e 33 41
e 33 44
e 33 45
e 33 46
e 33 47
e 33 49
e 33 50
e 33 51
e 33 52
e 33 53
e 33 54
e 33 55
e 33 58
e 33 60
e 34 35
e 34 36
e 34 37
e 34 38
e 34 39
e 34 40
e 34 41
e 34 42
e 34 43
e 34 44
e 34 45
e 34 46
e 34 48
e 34 53
e 34 56
e 34 58
e 34 59
e 34 60
e 35 36
e 35 37
e 35 38
e 35 39
e 35 40
e 35 42
e 35 43
e 35 44
e 35 45
e 35 47
e 35 48
e 35 49
e 35 50
e 35 51
e 35 52
e 35 53
e 35 54
e 35 55
e 35 56
e 35 57
e 35 59
e 35 60
e 36 37
e 36 40
e 36 42
e 36 45
e 36 47
e 36 49
e 36 50
e 36 51
e 36 52
e 36 53
e 36 54
e 36 55
e 36 57
e 36 58
e 36 60
e 37 39
e 37 43
e 37 44
e 37 47
e 37 48
e 37 52
e 37 53
e 37 55
e 37 56
e 37 58
e 37 60
e 38 39
e 38 45
e 38 49
e 38 52
e 38 53
e 38 54
e 38 55
e 38 58
e 38 59
e 38 60
e 39 40
e 39 42
e 39 43
e 39 46
e 39 49
e 39 50
e 39 51
e 39 52
e 39 54
e 39 57
e 39 59
e 40 41
e 40 42
e 40 44
e 40 45
e 40 46
e 40 47
e 40 48
e 40 49
e 40 50
e 40 54
e 40 57
e 40 58
e 40 59
e 40 60
e 41 44
e 41 48
e 41 49
e 41 51
e 41 52
e 41 53
e 41 54
e 41 55
e 41 57
e 41 59
e 41 60
e 42 43
e 42 48
e 42 49
e 42 50
e 42 51
e 42 52
e 42 53
e 42 54
e 42 55
e 42 57
e 42 58
e 42 59
e 43 44
e 43 50
e 43 51
e 43 53
e 43 54
e 43 55
e 43 56
e 43 57
e 43 58
e 43 60
e 44 45
e 44 46
e 44 47
e 44 49
e 44 52
e 44 53
e 44 54
e 44 55
e 44 58
e 44 59
e 44 60
e 45 49
e 45 51
e 45 52
e 45 54
e 45 56
e 45 57
e 45 59
e 45 60
e 46 47
e 46 49
e 46 50
e 46 53
e 46 54
e 46 58
e 46 59
e 46 60
e 47 48
e 47 49
e 47 50
e 47 54
e 47 55
e 47 56
e 47 58
e 47 59
e 47 60
e 48 54
e 48 55
e 48 56
e 48 57
e 48 58
e 49 51
e 49 52
e 49 53
e 49 54
e 49 56
e 49 57
e 49 59
e 49 60
e 50 52
e 50 55
e 50 56
e 50 57
e 50 59
e 51 56
e 51 57
e 51 58
e 51 59
e 52 54
e 52 56
e 52 58
e 53 55
e 53 56
e 53 58
e 53 59
e 53 60
e 54 55
e 54 57
e 55 56
e 55 57
e 55 59
e 55 60
e 56 57
e 56 59
e 56 60
e 57 58
e 57 60
e 58 60
